NAME : mar30_100_3
COMMENT : Data set with 30 points
COMMENT : CIn-UFPE
COMMENT : Contributed by Marcelo Lacerda
TYPE : TSP
DIMENSION : 30
EDGE_WEIGHT_TYPE : EUC_2D
NODE_COORD_SECTION
1 68 33
2 77 10
3 19 1
4 0 75
5 24 58
6 22 8
7 42 5
8 3 22
9 81 13
10 62 4
11 48 34
12 94 52
13 12 24
14 81 99
15 59 77
16 70 20
17 35 23
18 34 1
19 38 20
20 19 63
21 65 62
22 81 99
23 93 87
24 73 68
25 48 2
26 82 4
27 57 1
28 64 11
29 17 67
30 73 35
EOF
